&CONTROL
  calculation = 'scf'
  etot_conv_thr =   4.0000000000d-05
  forc_conv_thr =   1.0000000000d-04
  outdir = './out/'
  prefix = 'aiida'
  pseudo_dir = './pseudo/'
  tprnfor = .true.
  tstress = .true.
  verbosity = 'high'
/
&SYSTEM
  degauss =   1.4699723600d-02
  ecutrho =   7.2000000000d+02
  ecutwfc =   9.0000000000d+01
  ibrav = 0
  nat = 4
  nosym = .false.
  nspin = 2
  ntyp = 2
  occupations = 'smearing'
  smearing = 'cold'
  starting_magnetization(1) =   1.0000000000d-01
  starting_magnetization(2) =   2.7777777778d-01
/
&ELECTRONS
  conv_thr =   8.0000000000d-10
  electron_maxstep = 80
  mixing_beta =   4.0000000000d-01
/
ATOMIC_SPECIES
Cu     63.546 Cu.paw.z_11.ld1.psl.v1.0.0-low.upf
Ni     58.6934 ni_pbesol_v1.4.uspp.F.UPF
ATOMIC_POSITIONS crystal
Cu           0.5000000000       0.0000000000       0.5000000000 
Cu           0.0000000000       0.5000000000       0.5000000000 
Ni           0.0000000000       0.0000000000       0.0000000000 
Ni           0.5000000000       0.5000000000       0.0000000000 
K_POINTS automatic
13 8 8 0 0 0
CELL_PARAMETERS angstrom
      2.5743017700       0.0000000000       0.0000000000
      0.0000000000       4.1224913100       0.0000000000
      0.0000000000       0.0000000000       4.1331493200
